0 4920
2 4898
5 4880
7 4862
11 4852
13 4841
19 4830
22 4814
25 4757
26 4717
27 4692
37 4687
38 4686
42 4681
46 4665
53 4647
57 4592
66 4584
81 4579
86 4520
91 4463
100 4440
101 4437
110 4410
144 4397
155 4394
169 4388
170 4346
251 4342
307 4335
308 4315
310 4313
328 4308
400 4303
468 4302
484 4296
486 4289
504 4278
535 4259
549 4229
572 4222
608 4218
871 4214
875 4207
890 4196
1016 4190
1069 4181
1083 4178
1110 4160
1138 4145
1344 4137
1421 4136
1574 4133
1596 4127
1694 4116
1700 4115
1932 4110
2081 4106
2190 4101
2276 4099
2278 4096
2282 4086
2535 4084
2597 4074
2683 4070
2805 4069
2882 4064
2908 4059
3141 4054
3510 4053
4159 4042
5344 4041
5486 4040
5661 4038
6800 4034
6805 4030
6903 4026
9183 4014
9251 4011
9267 3991
9488 3990
9589 3986
13493 3983
13639 3973
13683 3969
13808 3964
14652 3961
14966 3952
16904 3950
19690 3948
